10
0, 293, 862, 488, 245, 483, 411, 931, 712, 834
293, 0, 801, 733, 114, 747, 609, 922, 618, 799
862, 801, 0, 832, 713, 907, 680, 184, 190, 76
488, 733, 832, 0, 634, 80, 168, 798, 779, 769
245, 114, 713, 634, 0, 656, 501, 823, 537, 704
483, 747, 907, 80, 656, 0, 232, 877, 847, 845
411, 609, 680, 168, 501, 232, 0, 669, 614, 622
931, 922, 184, 798, 823, 877, 669, 0, 353, 136
712, 618, 190, 779, 537, 847, 614, 353, 0, 217
834, 799, 76, 769, 704, 845, 622, 136, 217, 0
